
;this file is automatically generated: Wed Apr 21 11:03:27 CST 2021

;declarations generated

(declare-fun oclExcludes ( Int Int) Bool)
(declare-fun Cardinality ( Int) Int)
(declare-fun class14_Class14IntAttr3 ( Int) Int)
(declare-fun oclSelect ( Int Bool) Int)
(declare-fun type_0475fe47_3ec6_4b54_b6fc_344e4d9802a1_Class50 ( Int) Bool)
(declare-fun type_0475fe47_3ec6_4b54_b6fc_344e4d9802a1_Class55 ( Int) Bool)
(declare-fun type_0475fe47_3ec6_4b54_b6fc_344e4d9802a1_Class56 ( Int) Bool)
(declare-fun type_0475fe47_3ec6_4b54_b6fc_344e4d9802a1_Class53 ( Int) Bool)
(declare-fun type_0475fe47_3ec6_4b54_b6fc_344e4d9802a1_Class54 ( Int) Bool)
(declare-fun type_0475fe47_3ec6_4b54_b6fc_344e4d9802a1_Class51 ( Int) Bool)
(declare-fun type_0475fe47_3ec6_4b54_b6fc_344e4d9802a1_Class52 ( Int) Bool)
(declare-fun Enum0 ( Int) Int)
(declare-fun Enum1 ( Int) Int)
(declare-fun Enum2 ( Int) Int)
(declare-fun type_0475fe47_3ec6_4b54_b6fc_344e4d9802a1_Class35 ( Int) Bool)
(declare-fun type_0475fe47_3ec6_4b54_b6fc_344e4d9802a1_Class36 ( Int) Bool)
(declare-fun type_0475fe47_3ec6_4b54_b6fc_344e4d9802a1_Class33 ( Int) Bool)
(declare-fun type_0475fe47_3ec6_4b54_b6fc_344e4d9802a1_Class34 ( Int) Bool)
(declare-fun type_0475fe47_3ec6_4b54_b6fc_344e4d9802a1_Class31 ( Int) Bool)
(declare-fun type_0475fe47_3ec6_4b54_b6fc_344e4d9802a1_Class32 ( Int) Bool)
(declare-fun type_0475fe47_3ec6_4b54_b6fc_344e4d9802a1_Class30 ( Int) Bool)
(declare-fun type_0475fe47_3ec6_4b54_b6fc_344e4d9802a1_Class39 ( Int) Bool)
(declare-fun container_ ( Int) Int)
(declare-fun type_0475fe47_3ec6_4b54_b6fc_344e4d9802a1_Class37 ( Int) Bool)
(declare-fun obj_9bec56de_cb8f_4404_8be9_406ebb377a21 ( Int) Int)
(declare-fun type_0475fe47_3ec6_4b54_b6fc_344e4d9802a1_Class38 ( Int) Bool)
(declare-fun type_0475fe47_3ec6_4b54_b6fc_344e4d9802a1_Class46 ( Int) Bool)
(declare-fun type_0475fe47_3ec6_4b54_b6fc_344e4d9802a1_Class47 ( Int) Bool)
(declare-fun type_0475fe47_3ec6_4b54_b6fc_344e4d9802a1_Class44 ( Int) Bool)
(declare-fun type_0475fe47_3ec6_4b54_b6fc_344e4d9802a1_Class45 ( Int) Bool)
(declare-fun type_0475fe47_3ec6_4b54_b6fc_344e4d9802a1_Class42 ( Int) Bool)
(declare-fun type_0475fe47_3ec6_4b54_b6fc_344e4d9802a1_Class43 ( Int) Bool)
(declare-fun type_0475fe47_3ec6_4b54_b6fc_344e4d9802a1_Class40 ( Int) Bool)
(declare-fun type_0475fe47_3ec6_4b54_b6fc_344e4d9802a1_Class41 ( Int) Bool)
(declare-fun type_0475fe47_3ec6_4b54_b6fc_344e4d9802a1_Class48 ( Int) Bool)
(declare-fun type_0475fe47_3ec6_4b54_b6fc_344e4d9802a1_Class49 ( Int) Bool)
(declare-fun type_0475fe47_3ec6_4b54_b6fc_344e4d9802a1_Class13 ( Int) Bool)
(declare-fun type_0475fe47_3ec6_4b54_b6fc_344e4d9802a1_Class14 ( Int) Bool)
(declare-fun type_0475fe47_3ec6_4b54_b6fc_344e4d9802a1_Class11 ( Int) Bool)
(declare-fun type_0475fe47_3ec6_4b54_b6fc_344e4d9802a1_Class12 ( Int) Bool)
(declare-fun type_0475fe47_3ec6_4b54_b6fc_344e4d9802a1_Class10 ( Int) Bool)
(declare-fun type_0475fe47_3ec6_4b54_b6fc_344e4d9802a1_Class19 ( Int) Bool)
(declare-fun type_0475fe47_3ec6_4b54_b6fc_344e4d9802a1_Class17 ( Int) Bool)
(declare-fun type_0475fe47_3ec6_4b54_b6fc_344e4d9802a1_Class18 ( Int) Bool)
(declare-fun type_0475fe47_3ec6_4b54_b6fc_344e4d9802a1_Class15 ( Int) Bool)
(declare-fun type_0475fe47_3ec6_4b54_b6fc_344e4d9802a1_Class16 ( Int) Bool)
(declare-fun type_0475fe47_3ec6_4b54_b6fc_344e4d9802a1_Class24 ( Int) Bool)
(declare-fun oclIncludes ( Int Int) Bool)
(declare-fun type_0475fe47_3ec6_4b54_b6fc_344e4d9802a1_Class25 ( Int) Bool)
(declare-fun type_0475fe47_3ec6_4b54_b6fc_344e4d9802a1_Class22 ( Int) Bool)
(declare-fun type_0475fe47_3ec6_4b54_b6fc_344e4d9802a1_Class23 ( Int) Bool)
(declare-fun type_0475fe47_3ec6_4b54_b6fc_344e4d9802a1_Class20 ( Int) Bool)
(declare-fun type_0475fe47_3ec6_4b54_b6fc_344e4d9802a1_Class21 ( Int) Bool)
(declare-fun type_0475fe47_3ec6_4b54_b6fc_344e4d9802a1_Class28 ( Int) Bool)
(declare-fun type_0475fe47_3ec6_4b54_b6fc_344e4d9802a1_Class29 ( Int) Bool)
(declare-fun type_0475fe47_3ec6_4b54_b6fc_344e4d9802a1_Class26 ( Int) Bool)
(declare-fun type_0475fe47_3ec6_4b54_b6fc_344e4d9802a1_Class27 ( Int) Bool)
(declare-fun ObjAt ( Int Int) Int)
(declare-fun type_0475fe47_3ec6_4b54_b6fc_344e4d9802a1_Class6 ( Int) Bool)
(declare-fun type_0475fe47_3ec6_4b54_b6fc_344e4d9802a1_Class7 ( Int) Bool)
(declare-fun type_0475fe47_3ec6_4b54_b6fc_344e4d9802a1_Class4 ( Int) Bool)
(declare-fun type_0475fe47_3ec6_4b54_b6fc_344e4d9802a1_Class5 ( Int) Bool)
(declare-fun type_0475fe47_3ec6_4b54_b6fc_344e4d9802a1_Class8 ( Int) Bool)
(declare-fun type_0475fe47_3ec6_4b54_b6fc_344e4d9802a1_Class9 ( Int) Bool)
(declare-fun type_0475fe47_3ec6_4b54_b6fc_344e4d9802a1_Class2 ( Int) Bool)
(declare-fun type_0475fe47_3ec6_4b54_b6fc_344e4d9802a1_Class3 ( Int) Bool)
(declare-fun type_0475fe47_3ec6_4b54_b6fc_344e4d9802a1_Class0 ( Int) Bool)
(declare-fun type_0475fe47_3ec6_4b54_b6fc_344e4d9802a1_Class1 ( Int) Bool)

;formula(s) generated
(assert (! (forall ((c1 Int)) (=> (and (and (and (and (and (and ( type_0475fe47_3ec6_4b54_b6fc_344e4d9802a1_Class14 c1 )  ( type_0475fe47_3ec6_4b54_b6fc_344e4d9802a1_Class36 c1 ) ) ( type_0475fe47_3ec6_4b54_b6fc_344e4d9802a1_Class35 c1 ) ) ( type_0475fe47_3ec6_4b54_b6fc_344e4d9802a1_Class27 c1 ) ) ( type_0475fe47_3ec6_4b54_b6fc_344e4d9802a1_Class9 c1 ) ) ( type_0475fe47_3ec6_4b54_b6fc_344e4d9802a1_Class15 c1 ) ) ( type_0475fe47_3ec6_4b54_b6fc_344e4d9802a1_Class28 c1 ) ) (<= ( class14_Class14IntAttr3 ( obj_9bec56de_cb8f_4404_8be9_406ebb377a21 c1 )  )  1))):named l0))
(assert (! (exists ((o Int)) (and (and (and (and (and (and ( type_0475fe47_3ec6_4b54_b6fc_344e4d9802a1_Class0 ( obj_9bec56de_cb8f_4404_8be9_406ebb377a21 o )  )  ( type_0475fe47_3ec6_4b54_b6fc_344e4d9802a1_Class44 ( obj_9bec56de_cb8f_4404_8be9_406ebb377a21 o )  ) ) ( type_0475fe47_3ec6_4b54_b6fc_344e4d9802a1_Class36 ( obj_9bec56de_cb8f_4404_8be9_406ebb377a21 o )  ) ) ( type_0475fe47_3ec6_4b54_b6fc_344e4d9802a1_Class35 ( obj_9bec56de_cb8f_4404_8be9_406ebb377a21 o )  ) ) ( type_0475fe47_3ec6_4b54_b6fc_344e4d9802a1_Class27 ( obj_9bec56de_cb8f_4404_8be9_406ebb377a21 o )  ) ) ( type_0475fe47_3ec6_4b54_b6fc_344e4d9802a1_Class15 ( obj_9bec56de_cb8f_4404_8be9_406ebb377a21 o )  ) ) ( type_0475fe47_3ec6_4b54_b6fc_344e4d9802a1_Class28 ( obj_9bec56de_cb8f_4404_8be9_406ebb377a21 o )  ) )):named c0))
(assert (! (exists ((o Int)) ( type_0475fe47_3ec6_4b54_b6fc_344e4d9802a1_Class1 ( obj_9bec56de_cb8f_4404_8be9_406ebb377a21 o )  ) ):named c1))
(assert (! (exists ((o Int)) (and (and ( type_0475fe47_3ec6_4b54_b6fc_344e4d9802a1_Class10 ( obj_9bec56de_cb8f_4404_8be9_406ebb377a21 o )  )  ( type_0475fe47_3ec6_4b54_b6fc_344e4d9802a1_Class15 ( obj_9bec56de_cb8f_4404_8be9_406ebb377a21 o )  ) ) ( type_0475fe47_3ec6_4b54_b6fc_344e4d9802a1_Class21 ( obj_9bec56de_cb8f_4404_8be9_406ebb377a21 o )  ) )):named c2))
(assert (! (exists ((o Int)) ( type_0475fe47_3ec6_4b54_b6fc_344e4d9802a1_Class11 ( obj_9bec56de_cb8f_4404_8be9_406ebb377a21 o )  ) ):named c3))
(assert (! (exists ((o Int)) (and (and ( type_0475fe47_3ec6_4b54_b6fc_344e4d9802a1_Class12 ( obj_9bec56de_cb8f_4404_8be9_406ebb377a21 o )  )  ( type_0475fe47_3ec6_4b54_b6fc_344e4d9802a1_Class33 ( obj_9bec56de_cb8f_4404_8be9_406ebb377a21 o )  ) ) ( type_0475fe47_3ec6_4b54_b6fc_344e4d9802a1_Class15 ( obj_9bec56de_cb8f_4404_8be9_406ebb377a21 o )  ) )):named c4))
(assert (! (exists ((o Int)) ( type_0475fe47_3ec6_4b54_b6fc_344e4d9802a1_Class13 ( obj_9bec56de_cb8f_4404_8be9_406ebb377a21 o )  ) ):named c5))
(assert (! (exists ((o Int)) (and (and (and (and (and (and ( type_0475fe47_3ec6_4b54_b6fc_344e4d9802a1_Class14 ( obj_9bec56de_cb8f_4404_8be9_406ebb377a21 o )  )  ( type_0475fe47_3ec6_4b54_b6fc_344e4d9802a1_Class36 ( obj_9bec56de_cb8f_4404_8be9_406ebb377a21 o )  ) ) ( type_0475fe47_3ec6_4b54_b6fc_344e4d9802a1_Class35 ( obj_9bec56de_cb8f_4404_8be9_406ebb377a21 o )  ) ) ( type_0475fe47_3ec6_4b54_b6fc_344e4d9802a1_Class27 ( obj_9bec56de_cb8f_4404_8be9_406ebb377a21 o )  ) ) ( type_0475fe47_3ec6_4b54_b6fc_344e4d9802a1_Class9 ( obj_9bec56de_cb8f_4404_8be9_406ebb377a21 o )  ) ) ( type_0475fe47_3ec6_4b54_b6fc_344e4d9802a1_Class15 ( obj_9bec56de_cb8f_4404_8be9_406ebb377a21 o )  ) ) ( type_0475fe47_3ec6_4b54_b6fc_344e4d9802a1_Class28 ( obj_9bec56de_cb8f_4404_8be9_406ebb377a21 o )  ) )):named c6))
(assert (! (exists ((o Int)) ( type_0475fe47_3ec6_4b54_b6fc_344e4d9802a1_Class15 ( obj_9bec56de_cb8f_4404_8be9_406ebb377a21 o )  ) ):named c7))
(assert (! (exists ((o Int)) ( type_0475fe47_3ec6_4b54_b6fc_344e4d9802a1_Class16 ( obj_9bec56de_cb8f_4404_8be9_406ebb377a21 o )  ) ):named c8))
(assert (! (exists ((o Int)) (and (and (and (and (and (and ( type_0475fe47_3ec6_4b54_b6fc_344e4d9802a1_Class17 ( obj_9bec56de_cb8f_4404_8be9_406ebb377a21 o )  )  ( type_0475fe47_3ec6_4b54_b6fc_344e4d9802a1_Class44 ( obj_9bec56de_cb8f_4404_8be9_406ebb377a21 o )  ) ) ( type_0475fe47_3ec6_4b54_b6fc_344e4d9802a1_Class36 ( obj_9bec56de_cb8f_4404_8be9_406ebb377a21 o )  ) ) ( type_0475fe47_3ec6_4b54_b6fc_344e4d9802a1_Class35 ( obj_9bec56de_cb8f_4404_8be9_406ebb377a21 o )  ) ) ( type_0475fe47_3ec6_4b54_b6fc_344e4d9802a1_Class27 ( obj_9bec56de_cb8f_4404_8be9_406ebb377a21 o )  ) ) ( type_0475fe47_3ec6_4b54_b6fc_344e4d9802a1_Class15 ( obj_9bec56de_cb8f_4404_8be9_406ebb377a21 o )  ) ) ( type_0475fe47_3ec6_4b54_b6fc_344e4d9802a1_Class28 ( obj_9bec56de_cb8f_4404_8be9_406ebb377a21 o )  ) )):named c9))
(assert (! (exists ((o Int)) ( type_0475fe47_3ec6_4b54_b6fc_344e4d9802a1_Class18 ( obj_9bec56de_cb8f_4404_8be9_406ebb377a21 o )  ) ):named c10))
(assert (! (exists ((o Int)) (and (and (and (and (and (and ( type_0475fe47_3ec6_4b54_b6fc_344e4d9802a1_Class19 ( obj_9bec56de_cb8f_4404_8be9_406ebb377a21 o )  )  ( type_0475fe47_3ec6_4b54_b6fc_344e4d9802a1_Class36 ( obj_9bec56de_cb8f_4404_8be9_406ebb377a21 o )  ) ) ( type_0475fe47_3ec6_4b54_b6fc_344e4d9802a1_Class35 ( obj_9bec56de_cb8f_4404_8be9_406ebb377a21 o )  ) ) ( type_0475fe47_3ec6_4b54_b6fc_344e4d9802a1_Class27 ( obj_9bec56de_cb8f_4404_8be9_406ebb377a21 o )  ) ) ( type_0475fe47_3ec6_4b54_b6fc_344e4d9802a1_Class9 ( obj_9bec56de_cb8f_4404_8be9_406ebb377a21 o )  ) ) ( type_0475fe47_3ec6_4b54_b6fc_344e4d9802a1_Class15 ( obj_9bec56de_cb8f_4404_8be9_406ebb377a21 o )  ) ) ( type_0475fe47_3ec6_4b54_b6fc_344e4d9802a1_Class28 ( obj_9bec56de_cb8f_4404_8be9_406ebb377a21 o )  ) )):named c11))
(assert (! (exists ((o Int)) (and (and (and (and (and (and ( type_0475fe47_3ec6_4b54_b6fc_344e4d9802a1_Class2 ( obj_9bec56de_cb8f_4404_8be9_406ebb377a21 o )  )  ( type_0475fe47_3ec6_4b54_b6fc_344e4d9802a1_Class36 ( obj_9bec56de_cb8f_4404_8be9_406ebb377a21 o )  ) ) ( type_0475fe47_3ec6_4b54_b6fc_344e4d9802a1_Class35 ( obj_9bec56de_cb8f_4404_8be9_406ebb377a21 o )  ) ) ( type_0475fe47_3ec6_4b54_b6fc_344e4d9802a1_Class27 ( obj_9bec56de_cb8f_4404_8be9_406ebb377a21 o )  ) ) ( type_0475fe47_3ec6_4b54_b6fc_344e4d9802a1_Class15 ( obj_9bec56de_cb8f_4404_8be9_406ebb377a21 o )  ) ) ( type_0475fe47_3ec6_4b54_b6fc_344e4d9802a1_Class28 ( obj_9bec56de_cb8f_4404_8be9_406ebb377a21 o )  ) ) ( type_0475fe47_3ec6_4b54_b6fc_344e4d9802a1_Class54 ( obj_9bec56de_cb8f_4404_8be9_406ebb377a21 o )  ) )):named c12))
(assert (! (exists ((o Int)) (and ( type_0475fe47_3ec6_4b54_b6fc_344e4d9802a1_Class20 ( obj_9bec56de_cb8f_4404_8be9_406ebb377a21 o )  )  ( type_0475fe47_3ec6_4b54_b6fc_344e4d9802a1_Class15 ( obj_9bec56de_cb8f_4404_8be9_406ebb377a21 o )  ) )):named c13))
(assert (! (exists ((o Int)) (and ( type_0475fe47_3ec6_4b54_b6fc_344e4d9802a1_Class21 ( obj_9bec56de_cb8f_4404_8be9_406ebb377a21 o )  )  ( type_0475fe47_3ec6_4b54_b6fc_344e4d9802a1_Class15 ( obj_9bec56de_cb8f_4404_8be9_406ebb377a21 o )  ) )):named c14))
(assert (! (exists ((o Int)) (and (and (and ( type_0475fe47_3ec6_4b54_b6fc_344e4d9802a1_Class22 ( obj_9bec56de_cb8f_4404_8be9_406ebb377a21 o )  )  ( type_0475fe47_3ec6_4b54_b6fc_344e4d9802a1_Class15 ( obj_9bec56de_cb8f_4404_8be9_406ebb377a21 o )  ) ) ( type_0475fe47_3ec6_4b54_b6fc_344e4d9802a1_Class48 ( obj_9bec56de_cb8f_4404_8be9_406ebb377a21 o )  ) ) ( type_0475fe47_3ec6_4b54_b6fc_344e4d9802a1_Class43 ( obj_9bec56de_cb8f_4404_8be9_406ebb377a21 o )  ) )):named c15))
(assert (! (exists ((o Int)) ( type_0475fe47_3ec6_4b54_b6fc_344e4d9802a1_Class23 ( obj_9bec56de_cb8f_4404_8be9_406ebb377a21 o )  ) ):named c16))
(assert (! (exists ((o Int)) ( type_0475fe47_3ec6_4b54_b6fc_344e4d9802a1_Class24 ( obj_9bec56de_cb8f_4404_8be9_406ebb377a21 o )  ) ):named c17))
(assert (! (exists ((o Int)) (and (and (and ( type_0475fe47_3ec6_4b54_b6fc_344e4d9802a1_Class25 ( obj_9bec56de_cb8f_4404_8be9_406ebb377a21 o )  )  ( type_0475fe47_3ec6_4b54_b6fc_344e4d9802a1_Class12 ( obj_9bec56de_cb8f_4404_8be9_406ebb377a21 o )  ) ) ( type_0475fe47_3ec6_4b54_b6fc_344e4d9802a1_Class33 ( obj_9bec56de_cb8f_4404_8be9_406ebb377a21 o )  ) ) ( type_0475fe47_3ec6_4b54_b6fc_344e4d9802a1_Class15 ( obj_9bec56de_cb8f_4404_8be9_406ebb377a21 o )  ) )):named c18))
(assert (! (exists ((o Int)) ( type_0475fe47_3ec6_4b54_b6fc_344e4d9802a1_Class26 ( obj_9bec56de_cb8f_4404_8be9_406ebb377a21 o )  ) ):named c19))
(assert (! (exists ((o Int)) (and ( type_0475fe47_3ec6_4b54_b6fc_344e4d9802a1_Class27 ( obj_9bec56de_cb8f_4404_8be9_406ebb377a21 o )  )  ( type_0475fe47_3ec6_4b54_b6fc_344e4d9802a1_Class15 ( obj_9bec56de_cb8f_4404_8be9_406ebb377a21 o )  ) )):named c20))
(assert (! (exists ((o Int)) (and (and ( type_0475fe47_3ec6_4b54_b6fc_344e4d9802a1_Class28 ( obj_9bec56de_cb8f_4404_8be9_406ebb377a21 o )  )  ( type_0475fe47_3ec6_4b54_b6fc_344e4d9802a1_Class27 ( obj_9bec56de_cb8f_4404_8be9_406ebb377a21 o )  ) ) ( type_0475fe47_3ec6_4b54_b6fc_344e4d9802a1_Class15 ( obj_9bec56de_cb8f_4404_8be9_406ebb377a21 o )  ) )):named c21))
(assert (! (exists ((o Int)) (and (and (and (and (and ( type_0475fe47_3ec6_4b54_b6fc_344e4d9802a1_Class29 ( obj_9bec56de_cb8f_4404_8be9_406ebb377a21 o )  )  ( type_0475fe47_3ec6_4b54_b6fc_344e4d9802a1_Class36 ( obj_9bec56de_cb8f_4404_8be9_406ebb377a21 o )  ) ) ( type_0475fe47_3ec6_4b54_b6fc_344e4d9802a1_Class35 ( obj_9bec56de_cb8f_4404_8be9_406ebb377a21 o )  ) ) ( type_0475fe47_3ec6_4b54_b6fc_344e4d9802a1_Class27 ( obj_9bec56de_cb8f_4404_8be9_406ebb377a21 o )  ) ) ( type_0475fe47_3ec6_4b54_b6fc_344e4d9802a1_Class15 ( obj_9bec56de_cb8f_4404_8be9_406ebb377a21 o )  ) ) ( type_0475fe47_3ec6_4b54_b6fc_344e4d9802a1_Class28 ( obj_9bec56de_cb8f_4404_8be9_406ebb377a21 o )  ) )):named c22))
(assert (! (exists ((o Int)) ( type_0475fe47_3ec6_4b54_b6fc_344e4d9802a1_Class3 ( obj_9bec56de_cb8f_4404_8be9_406ebb377a21 o )  ) ):named c23))
(assert (! (exists ((o Int)) (and (and ( type_0475fe47_3ec6_4b54_b6fc_344e4d9802a1_Class30 ( obj_9bec56de_cb8f_4404_8be9_406ebb377a21 o )  )  ( type_0475fe47_3ec6_4b54_b6fc_344e4d9802a1_Class33 ( obj_9bec56de_cb8f_4404_8be9_406ebb377a21 o )  ) ) ( type_0475fe47_3ec6_4b54_b6fc_344e4d9802a1_Class15 ( obj_9bec56de_cb8f_4404_8be9_406ebb377a21 o )  ) )):named c24))
(assert (! (exists ((o Int)) (and (and (and (and (and (and ( type_0475fe47_3ec6_4b54_b6fc_344e4d9802a1_Class31 ( obj_9bec56de_cb8f_4404_8be9_406ebb377a21 o )  )  ( type_0475fe47_3ec6_4b54_b6fc_344e4d9802a1_Class36 ( obj_9bec56de_cb8f_4404_8be9_406ebb377a21 o )  ) ) ( type_0475fe47_3ec6_4b54_b6fc_344e4d9802a1_Class35 ( obj_9bec56de_cb8f_4404_8be9_406ebb377a21 o )  ) ) ( type_0475fe47_3ec6_4b54_b6fc_344e4d9802a1_Class27 ( obj_9bec56de_cb8f_4404_8be9_406ebb377a21 o )  ) ) ( type_0475fe47_3ec6_4b54_b6fc_344e4d9802a1_Class15 ( obj_9bec56de_cb8f_4404_8be9_406ebb377a21 o )  ) ) ( type_0475fe47_3ec6_4b54_b6fc_344e4d9802a1_Class28 ( obj_9bec56de_cb8f_4404_8be9_406ebb377a21 o )  ) ) ( type_0475fe47_3ec6_4b54_b6fc_344e4d9802a1_Class54 ( obj_9bec56de_cb8f_4404_8be9_406ebb377a21 o )  ) )):named c25))
(assert (! (exists ((o Int)) ( type_0475fe47_3ec6_4b54_b6fc_344e4d9802a1_Class32 ( obj_9bec56de_cb8f_4404_8be9_406ebb377a21 o )  ) ):named c26))
(assert (! (exists ((o Int)) (and ( type_0475fe47_3ec6_4b54_b6fc_344e4d9802a1_Class33 ( obj_9bec56de_cb8f_4404_8be9_406ebb377a21 o )  )  ( type_0475fe47_3ec6_4b54_b6fc_344e4d9802a1_Class15 ( obj_9bec56de_cb8f_4404_8be9_406ebb377a21 o )  ) )):named c27))
(assert (! (exists ((o Int)) ( type_0475fe47_3ec6_4b54_b6fc_344e4d9802a1_Class34 ( obj_9bec56de_cb8f_4404_8be9_406ebb377a21 o )  ) ):named c28))
(assert (! (exists ((o Int)) (and (and (and (and ( type_0475fe47_3ec6_4b54_b6fc_344e4d9802a1_Class35 ( obj_9bec56de_cb8f_4404_8be9_406ebb377a21 o )  )  ( type_0475fe47_3ec6_4b54_b6fc_344e4d9802a1_Class36 ( obj_9bec56de_cb8f_4404_8be9_406ebb377a21 o )  ) ) ( type_0475fe47_3ec6_4b54_b6fc_344e4d9802a1_Class27 ( obj_9bec56de_cb8f_4404_8be9_406ebb377a21 o )  ) ) ( type_0475fe47_3ec6_4b54_b6fc_344e4d9802a1_Class15 ( obj_9bec56de_cb8f_4404_8be9_406ebb377a21 o )  ) ) ( type_0475fe47_3ec6_4b54_b6fc_344e4d9802a1_Class28 ( obj_9bec56de_cb8f_4404_8be9_406ebb377a21 o )  ) )):named c29))
(assert (! (exists ((o Int)) (and (and (and ( type_0475fe47_3ec6_4b54_b6fc_344e4d9802a1_Class36 ( obj_9bec56de_cb8f_4404_8be9_406ebb377a21 o )  )  ( type_0475fe47_3ec6_4b54_b6fc_344e4d9802a1_Class27 ( obj_9bec56de_cb8f_4404_8be9_406ebb377a21 o )  ) ) ( type_0475fe47_3ec6_4b54_b6fc_344e4d9802a1_Class15 ( obj_9bec56de_cb8f_4404_8be9_406ebb377a21 o )  ) ) ( type_0475fe47_3ec6_4b54_b6fc_344e4d9802a1_Class28 ( obj_9bec56de_cb8f_4404_8be9_406ebb377a21 o )  ) )):named c30))
(assert (! (exists ((o Int)) (and ( type_0475fe47_3ec6_4b54_b6fc_344e4d9802a1_Class37 ( obj_9bec56de_cb8f_4404_8be9_406ebb377a21 o )  )  ( type_0475fe47_3ec6_4b54_b6fc_344e4d9802a1_Class15 ( obj_9bec56de_cb8f_4404_8be9_406ebb377a21 o )  ) )):named c31))
(assert (! (exists ((o Int)) (and (and (and (and ( type_0475fe47_3ec6_4b54_b6fc_344e4d9802a1_Class38 ( obj_9bec56de_cb8f_4404_8be9_406ebb377a21 o )  )  ( type_0475fe47_3ec6_4b54_b6fc_344e4d9802a1_Class22 ( obj_9bec56de_cb8f_4404_8be9_406ebb377a21 o )  ) ) ( type_0475fe47_3ec6_4b54_b6fc_344e4d9802a1_Class15 ( obj_9bec56de_cb8f_4404_8be9_406ebb377a21 o )  ) ) ( type_0475fe47_3ec6_4b54_b6fc_344e4d9802a1_Class48 ( obj_9bec56de_cb8f_4404_8be9_406ebb377a21 o )  ) ) ( type_0475fe47_3ec6_4b54_b6fc_344e4d9802a1_Class43 ( obj_9bec56de_cb8f_4404_8be9_406ebb377a21 o )  ) )):named c32))
(assert (! (exists ((o Int)) ( type_0475fe47_3ec6_4b54_b6fc_344e4d9802a1_Class39 ( obj_9bec56de_cb8f_4404_8be9_406ebb377a21 o )  ) ):named c33))
(assert (! (exists ((o Int)) (and (and (and (and (and (and ( type_0475fe47_3ec6_4b54_b6fc_344e4d9802a1_Class4 ( obj_9bec56de_cb8f_4404_8be9_406ebb377a21 o )  )  ( type_0475fe47_3ec6_4b54_b6fc_344e4d9802a1_Class44 ( obj_9bec56de_cb8f_4404_8be9_406ebb377a21 o )  ) ) ( type_0475fe47_3ec6_4b54_b6fc_344e4d9802a1_Class36 ( obj_9bec56de_cb8f_4404_8be9_406ebb377a21 o )  ) ) ( type_0475fe47_3ec6_4b54_b6fc_344e4d9802a1_Class35 ( obj_9bec56de_cb8f_4404_8be9_406ebb377a21 o )  ) ) ( type_0475fe47_3ec6_4b54_b6fc_344e4d9802a1_Class27 ( obj_9bec56de_cb8f_4404_8be9_406ebb377a21 o )  ) ) ( type_0475fe47_3ec6_4b54_b6fc_344e4d9802a1_Class15 ( obj_9bec56de_cb8f_4404_8be9_406ebb377a21 o )  ) ) ( type_0475fe47_3ec6_4b54_b6fc_344e4d9802a1_Class28 ( obj_9bec56de_cb8f_4404_8be9_406ebb377a21 o )  ) )):named c34))
(assert (! (exists ((o Int)) ( type_0475fe47_3ec6_4b54_b6fc_344e4d9802a1_Class40 ( obj_9bec56de_cb8f_4404_8be9_406ebb377a21 o )  ) ):named c35))
(assert (! (exists ((o Int)) ( type_0475fe47_3ec6_4b54_b6fc_344e4d9802a1_Class41 ( obj_9bec56de_cb8f_4404_8be9_406ebb377a21 o )  ) ):named c36))
(assert (! (exists ((o Int)) ( type_0475fe47_3ec6_4b54_b6fc_344e4d9802a1_Class42 ( obj_9bec56de_cb8f_4404_8be9_406ebb377a21 o )  ) ):named c37))
(assert (! (exists ((o Int)) (and ( type_0475fe47_3ec6_4b54_b6fc_344e4d9802a1_Class43 ( obj_9bec56de_cb8f_4404_8be9_406ebb377a21 o )  )  ( type_0475fe47_3ec6_4b54_b6fc_344e4d9802a1_Class15 ( obj_9bec56de_cb8f_4404_8be9_406ebb377a21 o )  ) )):named c38))
(assert (! (exists ((o Int)) (and (and (and (and (and ( type_0475fe47_3ec6_4b54_b6fc_344e4d9802a1_Class44 ( obj_9bec56de_cb8f_4404_8be9_406ebb377a21 o )  )  ( type_0475fe47_3ec6_4b54_b6fc_344e4d9802a1_Class36 ( obj_9bec56de_cb8f_4404_8be9_406ebb377a21 o )  ) ) ( type_0475fe47_3ec6_4b54_b6fc_344e4d9802a1_Class35 ( obj_9bec56de_cb8f_4404_8be9_406ebb377a21 o )  ) ) ( type_0475fe47_3ec6_4b54_b6fc_344e4d9802a1_Class27 ( obj_9bec56de_cb8f_4404_8be9_406ebb377a21 o )  ) ) ( type_0475fe47_3ec6_4b54_b6fc_344e4d9802a1_Class15 ( obj_9bec56de_cb8f_4404_8be9_406ebb377a21 o )  ) ) ( type_0475fe47_3ec6_4b54_b6fc_344e4d9802a1_Class28 ( obj_9bec56de_cb8f_4404_8be9_406ebb377a21 o )  ) )):named c39))
(assert (! (exists ((o Int)) (and (and (and (and (and (and ( type_0475fe47_3ec6_4b54_b6fc_344e4d9802a1_Class45 ( obj_9bec56de_cb8f_4404_8be9_406ebb377a21 o )  )  ( type_0475fe47_3ec6_4b54_b6fc_344e4d9802a1_Class36 ( obj_9bec56de_cb8f_4404_8be9_406ebb377a21 o )  ) ) ( type_0475fe47_3ec6_4b54_b6fc_344e4d9802a1_Class35 ( obj_9bec56de_cb8f_4404_8be9_406ebb377a21 o )  ) ) ( type_0475fe47_3ec6_4b54_b6fc_344e4d9802a1_Class27 ( obj_9bec56de_cb8f_4404_8be9_406ebb377a21 o )  ) ) ( type_0475fe47_3ec6_4b54_b6fc_344e4d9802a1_Class9 ( obj_9bec56de_cb8f_4404_8be9_406ebb377a21 o )  ) ) ( type_0475fe47_3ec6_4b54_b6fc_344e4d9802a1_Class15 ( obj_9bec56de_cb8f_4404_8be9_406ebb377a21 o )  ) ) ( type_0475fe47_3ec6_4b54_b6fc_344e4d9802a1_Class28 ( obj_9bec56de_cb8f_4404_8be9_406ebb377a21 o )  ) )):named c40))
(assert (! (exists ((o Int)) (and (and ( type_0475fe47_3ec6_4b54_b6fc_344e4d9802a1_Class46 ( obj_9bec56de_cb8f_4404_8be9_406ebb377a21 o )  )  ( type_0475fe47_3ec6_4b54_b6fc_344e4d9802a1_Class15 ( obj_9bec56de_cb8f_4404_8be9_406ebb377a21 o )  ) ) ( type_0475fe47_3ec6_4b54_b6fc_344e4d9802a1_Class5 ( obj_9bec56de_cb8f_4404_8be9_406ebb377a21 o )  ) )):named c41))
(assert (! (exists ((o Int)) ( type_0475fe47_3ec6_4b54_b6fc_344e4d9802a1_Class47 ( obj_9bec56de_cb8f_4404_8be9_406ebb377a21 o )  ) ):named c42))
(assert (! (exists ((o Int)) (and ( type_0475fe47_3ec6_4b54_b6fc_344e4d9802a1_Class48 ( obj_9bec56de_cb8f_4404_8be9_406ebb377a21 o )  )  ( type_0475fe47_3ec6_4b54_b6fc_344e4d9802a1_Class15 ( obj_9bec56de_cb8f_4404_8be9_406ebb377a21 o )  ) )):named c43))
(assert (! (exists ((o Int)) ( type_0475fe47_3ec6_4b54_b6fc_344e4d9802a1_Class49 ( obj_9bec56de_cb8f_4404_8be9_406ebb377a21 o )  ) ):named c44))
(assert (! (exists ((o Int)) (and ( type_0475fe47_3ec6_4b54_b6fc_344e4d9802a1_Class5 ( obj_9bec56de_cb8f_4404_8be9_406ebb377a21 o )  )  ( type_0475fe47_3ec6_4b54_b6fc_344e4d9802a1_Class15 ( obj_9bec56de_cb8f_4404_8be9_406ebb377a21 o )  ) )):named c45))
(assert (! (exists ((o Int)) ( type_0475fe47_3ec6_4b54_b6fc_344e4d9802a1_Class50 ( obj_9bec56de_cb8f_4404_8be9_406ebb377a21 o )  ) ):named c46))
(assert (! (exists ((o Int)) ( type_0475fe47_3ec6_4b54_b6fc_344e4d9802a1_Class51 ( obj_9bec56de_cb8f_4404_8be9_406ebb377a21 o )  ) ):named c47))
(assert (! (exists ((o Int)) ( type_0475fe47_3ec6_4b54_b6fc_344e4d9802a1_Class52 ( obj_9bec56de_cb8f_4404_8be9_406ebb377a21 o )  ) ):named c48))
(assert (! (exists ((o Int)) ( type_0475fe47_3ec6_4b54_b6fc_344e4d9802a1_Class53 ( obj_9bec56de_cb8f_4404_8be9_406ebb377a21 o )  ) ):named c49))
(assert (! (exists ((o Int)) (and (and (and (and (and ( type_0475fe47_3ec6_4b54_b6fc_344e4d9802a1_Class54 ( obj_9bec56de_cb8f_4404_8be9_406ebb377a21 o )  )  ( type_0475fe47_3ec6_4b54_b6fc_344e4d9802a1_Class36 ( obj_9bec56de_cb8f_4404_8be9_406ebb377a21 o )  ) ) ( type_0475fe47_3ec6_4b54_b6fc_344e4d9802a1_Class35 ( obj_9bec56de_cb8f_4404_8be9_406ebb377a21 o )  ) ) ( type_0475fe47_3ec6_4b54_b6fc_344e4d9802a1_Class27 ( obj_9bec56de_cb8f_4404_8be9_406ebb377a21 o )  ) ) ( type_0475fe47_3ec6_4b54_b6fc_344e4d9802a1_Class15 ( obj_9bec56de_cb8f_4404_8be9_406ebb377a21 o )  ) ) ( type_0475fe47_3ec6_4b54_b6fc_344e4d9802a1_Class28 ( obj_9bec56de_cb8f_4404_8be9_406ebb377a21 o )  ) )):named c50))
(assert (! (exists ((o Int)) ( type_0475fe47_3ec6_4b54_b6fc_344e4d9802a1_Class55 ( obj_9bec56de_cb8f_4404_8be9_406ebb377a21 o )  ) ):named c51))
(assert (! (exists ((o Int)) ( type_0475fe47_3ec6_4b54_b6fc_344e4d9802a1_Class56 ( obj_9bec56de_cb8f_4404_8be9_406ebb377a21 o )  ) ):named c52))
(assert (! (exists ((o Int)) (and (and (and (and ( type_0475fe47_3ec6_4b54_b6fc_344e4d9802a1_Class6 ( obj_9bec56de_cb8f_4404_8be9_406ebb377a21 o )  )  ( type_0475fe47_3ec6_4b54_b6fc_344e4d9802a1_Class22 ( obj_9bec56de_cb8f_4404_8be9_406ebb377a21 o )  ) ) ( type_0475fe47_3ec6_4b54_b6fc_344e4d9802a1_Class15 ( obj_9bec56de_cb8f_4404_8be9_406ebb377a21 o )  ) ) ( type_0475fe47_3ec6_4b54_b6fc_344e4d9802a1_Class48 ( obj_9bec56de_cb8f_4404_8be9_406ebb377a21 o )  ) ) ( type_0475fe47_3ec6_4b54_b6fc_344e4d9802a1_Class43 ( obj_9bec56de_cb8f_4404_8be9_406ebb377a21 o )  ) )):named c53))
(assert (! (exists ((o Int)) ( type_0475fe47_3ec6_4b54_b6fc_344e4d9802a1_Class7 ( obj_9bec56de_cb8f_4404_8be9_406ebb377a21 o )  ) ):named c54))
(assert (! (exists ((o Int)) ( type_0475fe47_3ec6_4b54_b6fc_344e4d9802a1_Class8 ( obj_9bec56de_cb8f_4404_8be9_406ebb377a21 o )  ) ):named c55))
(assert (! (exists ((o Int)) (and (and (and (and (and ( type_0475fe47_3ec6_4b54_b6fc_344e4d9802a1_Class9 ( obj_9bec56de_cb8f_4404_8be9_406ebb377a21 o )  )  ( type_0475fe47_3ec6_4b54_b6fc_344e4d9802a1_Class36 ( obj_9bec56de_cb8f_4404_8be9_406ebb377a21 o )  ) ) ( type_0475fe47_3ec6_4b54_b6fc_344e4d9802a1_Class35 ( obj_9bec56de_cb8f_4404_8be9_406ebb377a21 o )  ) ) ( type_0475fe47_3ec6_4b54_b6fc_344e4d9802a1_Class27 ( obj_9bec56de_cb8f_4404_8be9_406ebb377a21 o )  ) ) ( type_0475fe47_3ec6_4b54_b6fc_344e4d9802a1_Class15 ( obj_9bec56de_cb8f_4404_8be9_406ebb377a21 o )  ) ) ( type_0475fe47_3ec6_4b54_b6fc_344e4d9802a1_Class28 ( obj_9bec56de_cb8f_4404_8be9_406ebb377a21 o )  ) )):named c56))

 ;end of formula 